N = 10;  % Number of tests
M = 3;   % Number of machines
R = 1;   % Number of resources

durations = [2, 4, 3, 4, 3, 2, 1, 2, 3, 5];

machines = [{}, {}, {}, {}, {}, {}, {1}, {2}, {3}, {1,2,3}];

resources = [{}, {1}, {1}, {1}, {}, {}, {}, {}, {}, {}];
